<number of tasks>
50

<cycle time>
1000

<order strength>
0.197


<task times>
1 105
2 170
3 33
4 198
5 158
6 233
7 176
8 86
9 48
10 38
11 77
12 142
13 143
14 303
15 82
16 250
17 164
18 169
19 112
20 147
21 64
22 81
23 249
24 124
25 67
26 231
27 216
28 153
29 68
30 198
31 224
32 119
33 206
34 62
35 46
36 211
37 121
38 238
39 107
40 105
41 55
42 86
43 55
44 111
45 33
46 72
47 186
48 82
49 182
50 117

<precedence relations>
1,32
2,8
2,11
3,9
3,13
4,10
4,12
5,14
8,17
9,16
10,18
10,30
12,15
13,19
15,32
16,22
17,23
18,24
19,20
19,21
19,25
20,32
21,32
22,27
23,28
24,29
25,26
25,30
25,31
26,32
27,35
28,33
29,34
30,36
32,37
32,38
32,39
32,40
33,41
34,42
36,43
37,46
38,48
38,49
38,50
40,47
41,45
42,44

<end>
